5 6 59
1 1 1 24 30 
5 2 1 2 2 2 3 5 1 5 2 8 25 25 32 32 47 47 51 51 58 
5 3 1 3 2 3 3 4 1 4 2 10 19 19 23 23 34 34 41 41 54 
2 1 2 1 3 40 50 50 59 
5 2 1 4 1 4 1 5 1 5 1 0 8 8 18 18 28 28 36 36 44 
4 3 1 1 1 1 1 1 2 0 10 10 18 18 24 30 40 
